param n := 120;
param c := 1500
param : V : p w :=
   0	  93	  83
   1	  47	  37
   2	 108	  98
   3	  95	  85
   4	  98	  88
   5	 105	  95
   6	  39	  29
   7	  45	  35
   8	 110	 100
   9	  65	  55
  10	  58	  48
  11	  37	  27
  12	  30	  20
  13	  76	  66
  14	  72	  62
  15	  62	  52
  16	  98	  88
  17	  69	  59
  18	 107	  97
  19	 101	  91
  20	  91	  81
  21	  91	  81
  22	  96	  86
  23	  58	  48
  24	  53	  43
  25	  70	  60
  26	  82	  72
  27	  98	  88
  28	 100	  90
  29	  58	  48
  30	  48	  38
  31	  70	  60
  32	  63	  53
  33	  65	  55
  34	 100	  90
  35	  58	  48
  36	  65	  55
  37	  67	  57
  38	  69	  59
  39	  35	  25
  40	  61	  51
  41	  32	  22
  42	  53	  43
  43	  41	  31
  44	  62	  52
  45	  99	  89
  46	 106	  96
  47	  68	  58
  48	  73	  63
  49	  37	  27
  50	  56	  46
  51	  53	  43
  52	  40	  30
  53	  54	  44
  54	  81	  71
  55	  76	  66
  56	  74	  64
  57	  38	  28
  58	  93	  83
  59	  98	  88
  60	  52	  42
  61	 102	  92
  62	 105	  95
  63	  46	  36
  64	  34	  24
  65	  72	  62
  66	  54	  44
  67	  92	  82
  68	  69	  59
  69	  41	  31
  70	 106	  96
  71	  54	  44
  72	  71	  61
  73	  88	  78
  74	  82	  72
  75	  72	  62
  76	  86	  76
  77	  75	  65
  78	  32	  22
  79	  51	  41
  80	  37	  27
  81	  95	  85
  82	  90	  80
  83	  82	  72
  84	 110	 100
  85	  39	  29
  86	  37	  27
  87	  53	  43
  88	  93	  83
  89	  42	  32
  90	  43	  33
  91	  63	  53
  92	 105	  95
  93	 109	  99
  94	  30	  20
  95	  33	  23
  96	  82	  72
  97	  60	  50
  98	  60	  50
  99	  37	  27
 100	  99	  89
 101	  63	  53
 102	  85	  75
 103	  91	  81
 104	  44	  34
 105	  37	  27
 106	  79	  69
 107	  58	  48
 108	  94	  84
 109	  47	  37
 110	  79	  69
 111	  64	  54
 112	  61	  51
 113	  59	  49
 114	  59	  49
 115	  64	  54
 116	 110	 100
 117	  65	  55
 118	  55	  45
 119	  93	  83
;

set E :=
   0	   3
   0	   4
   0	  10
   0	  11
   0	  15
   0	  18
   0	  22
   0	  25
   0	  26
   0	  27
   0	  29
   0	  31
   0	  36
   0	  37
   0	  41
   0	  42
   0	  43
   0	  47
   0	  51
   0	  53
   0	  58
   0	  68
   0	  72
   0	  73
   0	  74
   0	  76
   0	  79
   0	  80
   0	  81
   0	  85
   0	  88
   0	 105
   0	 107
   0	 109
   0	 111
   0	 113
   1	   2
   1	   3
   1	   5
   1	   7
   1	  11
   1	  15
   1	  17
   1	  18
   1	  19
   1	  22
   1	  23
   1	  26
   1	  28
   1	  33
   1	  34
   1	  37
   1	  43
   1	  45
   1	  46
   1	  47
   1	  52
   1	  54
   1	  56
   1	  59
   1	  60
   1	  64
   1	  68
   1	  70
   1	  79
   1	  81
   1	  87
   1	  88
   1	  92
   1	  93
   1	 101
   1	 102
   1	 104
   1	 106
   1	 109
   1	 111
   1	 113
   1	 114
   1	 118
   2	   6
   2	   7
   2	   8
   2	  13
   2	  21
   2	  25
   2	  28
   2	  30
   2	  31
   2	  35
   2	  37
   2	  38
   2	  45
   2	  47
   2	  52
   2	  54
   2	  55
   2	  57
   2	  59
   2	  62
   2	  63
   2	  66
   2	  68
   2	  73
   2	  74
   2	  75
   2	  77
   2	  78
   2	  82
   2	  87
   2	  88
   2	  89
   2	  90
   2	  93
   2	 103
   2	 109
   2	 111
   2	 113
   2	 115
   2	 117
   3	   5
   3	  10
   3	  11
   3	  15
   3	  21
   3	  22
   3	  30
   3	  34
   3	  41
   3	  42
   3	  46
   3	  48
   3	  51
   3	  56
   3	  62
   3	  64
   3	  65
   3	  69
   3	  73
   3	  75
   3	  77
   3	  78
   3	  82
   3	  84
   3	  87
   3	  88
   3	  91
   3	  95
   3	 102
   3	 105
   3	 111
   3	 113
   3	 116
   3	 118
   4	   7
   4	   9
   4	  10
   4	  13
   4	  15
   4	  24
   4	  27
   4	  39
   4	  40
   4	  41
   4	  46
   4	  47
   4	  49
   4	  62
   4	  67
   4	  73
   4	  75
   4	  86
   4	  87
   4	  89
   4	 100
   4	 107
   4	 111
   4	 115
   4	 117
   4	 118
   5	  18
   5	  21
   5	  23
   5	  26
   5	  30
   5	  33
   5	  38
   5	  40
   5	  41
   5	  42
   5	  45
   5	  49
   5	  53
   5	  59
   5	  61
   5	  62
   5	  75
   5	  78
   5	  88
   5	  92
   5	  93
   5	  98
   5	 103
   5	 104
   5	 105
   5	 106
   5	 108
   5	 112
   6	   7
   6	   8
   6	   9
   6	  11
   6	  15
   6	  16
   6	  18
   6	  19
   6	  22
   6	  23
   6	  24
   6	  27
   6	  33
   6	  34
   6	  36
   6	  41
   6	  42
   6	  47
   6	  50
   6	  51
   6	  54
   6	  55
   6	  56
   6	  61
   6	  63
   6	  72
   6	  76
   6	  77
   6	  81
   6	  96
   6	  98
   6	  99
   6	 100
   6	 102
   6	 103
   6	 107
   6	 109
   6	 113
   6	 114
   6	 116
   7	  24
   7	  25
   7	  26
   7	  31
   7	  35
   7	  36
   7	  37
   7	  38
   7	  45
   7	  46
   7	  47
   7	  49
   7	  54
   7	  62
   7	  65
   7	  67
   7	  69
   7	  71
   7	  76
   7	  80
   7	  82
   7	  83
   7	  84
   7	  88
   7	  89
   7	  95
   7	  99
   7	 100
   7	 103
   7	 105
   7	 106
   7	 107
   7	 112
   7	 117
   8	  11
   8	  12
   8	  13
   8	  14
   8	  17
   8	  21
   8	  22
   8	  24
   8	  25
   8	  26
   8	  28
   8	  33
   8	  41
   8	  43
   8	  51
   8	  52
   8	  53
   8	  54
   8	  55
   8	  60
   8	  61
   8	  62
   8	  86
   8	  92
   8	  96
   8	 100
   8	 104
   8	 108
   8	 109
   8	 110
   8	 112
   8	 113
   8	 116
   8	 119
   9	  17
   9	  19
   9	  21
   9	  27
   9	  36
   9	  37
   9	  42
   9	  48
   9	  55
   9	  56
   9	  59
   9	  60
   9	  62
   9	  66
   9	  71
   9	  78
   9	  87
   9	  90
   9	  94
   9	  97
   9	  99
   9	 103
   9	 104
   9	 106
   9	 109
   9	 110
   9	 111
   9	 113
   9	 116
   9	 118
  10	  15
  10	  16
  10	  17
  10	  19
  10	  27
  10	  32
  10	  33
  10	  38
  10	  43
  10	  45
  10	  47
  10	  48
  10	  52
  10	  57
  10	  61
  10	  66
  10	  67
  10	  71
  10	  74
  10	  82
  10	  85
  10	  86
  10	  87
  10	  88
  10	  89
  10	  94
  10	 100
  10	 101
  10	 106
  10	 110
  10	 115
  10	 116
  10	 118
  11	  17
  11	  18
  11	  28
  11	  29
  11	  31
  11	  34
  11	  41
  11	  45
  11	  47
  11	  48
  11	  54
  11	  55
  11	  56
  11	  64
  11	  66
  11	  70
  11	  71
  11	  72
  11	  74
  11	  77
  11	  78
  11	  79
  11	  81
  11	  82
  11	  84
  11	  85
  11	  87
  11	  88
  11	  94
  11	  95
  11	  96
  11	  99
  11	 101
  11	 113
  11	 114
  11	 115
  11	 116
  11	 117
  12	  14
  12	  15
  12	  16
  12	  33
  12	  37
  12	  39
  12	  40
  12	  41
  12	  42
  12	  45
  12	  46
  12	  47
  12	  48
  12	  49
  12	  50
  12	  55
  12	  56
  12	  58
  12	  60
  12	  67
  12	  70
  12	  74
  12	  76
  12	  81
  12	  85
  12	  86
  12	  89
  12	  90
  12	  98
  12	 107
  13	  16
  13	  18
  13	  19
  13	  22
  13	  25
  13	  27
  13	  28
  13	  30
  13	  32
  13	  34
  13	  40
  13	  41
  13	  51
  13	  53
  13	  57
  13	  62
  13	  64
  13	  66
  13	  68
  13	  70
  13	  72
  13	  73
  13	  76
  13	  79
  13	  96
  13	 107
  13	 108
  13	 110
  13	 119
  14	  16
  14	  19
  14	  23
  14	  27
  14	  30
  14	  31
  14	  32
  14	  37
  14	  41
  14	  45
  14	  46
  14	  52
  14	  53
  14	  60
  14	  61
  14	  62
  14	  68
  14	  69
  14	  70
  14	  73
  14	  75
  14	  77
  14	  79
  14	  80
  14	  83
  14	  84
  14	  86
  14	  88
  14	  92
  14	  95
  14	  96
  14	  97
  14	  99
  14	 101
  14	 102
  14	 108
  14	 115
  15	  23
  15	  27
  15	  28
  15	  30
  15	  37
  15	  45
  15	  52
  15	  53
  15	  54
  15	  55
  15	  57
  15	  59
  15	  61
  15	  62
  15	  63
  15	  64
  15	  67
  15	  70
  15	  75
  15	  76
  15	  77
  15	  80
  15	  83
  15	  89
  15	  91
  15	  92
  15	  97
  15	  99
  15	 102
  15	 105
  15	 112
  15	 114
  16	  17
  16	  18
  16	  22
  16	  24
  16	  27
  16	  29
  16	  34
  16	  37
  16	  41
  16	  42
  16	  46
  16	  47
  16	  48
  16	  49
  16	  50
  16	  51
  16	  59
  16	  68
  16	  75
  16	  77
  16	  78
  16	  79
  16	  82
  16	  90
  16	  93
  16	  94
  16	  99
  16	 102
  16	 106
  16	 110
  16	 115
  17	  18
  17	  25
  17	  30
  17	  35
  17	  38
  17	  48
  17	  50
  17	  55
  17	  56
  17	  57
  17	  59
  17	  60
  17	  63
  17	  66
  17	  69
  17	  71
  17	  72
  17	  74
  17	  76
  17	  78
  17	  85
  17	  86
  17	  89
  17	  91
  17	  92
  17	  94
  17	  95
  17	  98
  17	 102
  17	 111
  17	 112
  17	 119
  18	  21
  18	  22
  18	  24
  18	  28
  18	  35
  18	  38
  18	  41
  18	  46
  18	  48
  18	  50
  18	  53
  18	  58
  18	  61
  18	  62
  18	  65
  18	  71
  18	  74
  18	  76
  18	  79
  18	  85
  18	  87
  18	  98
  18	 103
  18	 104
  18	 108
  18	 109
  18	 115
  18	 116
  18	 118
  19	  22
  19	  23
  19	  31
  19	  34
  19	  39
  19	  40
  19	  41
  19	  44
  19	  48
  19	  53
  19	  60
  19	  62
  19	  66
  19	  67
  19	  71
  19	  79
  19	  82
  19	  97
  19	 102
  19	 110
  19	 118
  20	  21
  20	  23
  20	  25
  20	  26
  20	  29
  20	  30
  20	  33
  20	  40
  20	  44
  20	  45
  20	  52
  20	  56
  20	  58
  20	  62
  20	  67
  20	  68
  20	  75
  20	  76
  20	  80
  20	  81
  20	  90
  20	  91
  20	  93
  20	  97
  20	 104
  20	 105
  20	 106
  20	 111
  20	 112
  20	 114
  20	 115
  20	 116
  21	  23
  21	  28
  21	  29
  21	  32
  21	  35
  21	  36
  21	  37
  21	  40
  21	  41
  21	  42
  21	  46
  21	  47
  21	  50
  21	  52
  21	  60
  21	  63
  21	  65
  21	  69
  21	  76
  21	  79
  21	  82
  21	  84
  21	  87
  21	  88
  21	  92
  21	  99
  21	 104
  21	 109
  21	 110
  21	 111
  21	 112
  21	 113
  21	 115
  21	 117
  21	 118
  22	  28
  22	  29
  22	  34
  22	  36
  22	  39
  22	  47
  22	  51
  22	  54
  22	  57
  22	  62
  22	  63
  22	  67
  22	  78
  22	  80
  22	  82
  22	  90
  22	  91
  22	  93
  22	  96
  22	  99
  22	 105
  22	 106
  22	 107
  22	 109
  22	 115
  22	 116
  23	  29
  23	  31
  23	  32
  23	  34
  23	  35
  23	  37
  23	  39
  23	  41
  23	  42
  23	  43
  23	  45
  23	  47
  23	  53
  23	  54
  23	  58
  23	  62
  23	  67
  23	  68
  23	  71
  23	  72
  23	  73
  23	  74
  23	  75
  23	  77
  23	  78
  23	  90
  23	  91
  23	  94
  23	  95
  23	  97
  23	 101
  23	 113
  23	 114
  23	 116
  23	 117
  23	 118
  24	  25
  24	  29
  24	  32
  24	  33
  24	  36
  24	  40
  24	  44
  24	  45
  24	  47
  24	  53
  24	  54
  24	  55
  24	  56
  24	  63
  24	  64
  24	  67
  24	  74
  24	  76
  24	  82
  24	  86
  24	  88
  24	  93
  24	 104
  24	 110
  24	 113
  24	 117
  25	  28
  25	  33
  25	  34
  25	  46
  25	  50
  25	  51
  25	  53
  25	  54
  25	  55
  25	  57
  25	  58
  25	  64
  25	  66
  25	  69
  25	  73
  25	  74
  25	  76
  25	  77
  25	  84
  25	  91
  25	  93
  25	  94
  25	  96
  25	 104
  25	 108
  25	 116
  26	  27
  26	  28
  26	  30
  26	  32
  26	  33
  26	  39
  26	  43
  26	  44
  26	  47
  26	  48
  26	  50
  26	  52
  26	  57
  26	  58
  26	  60
  26	  61
  26	  62
  26	  63
  26	  67
  26	  68
  26	  70
  26	  73
  26	  76
  26	  85
  26	  90
  26	  91
  26	  96
  26	 100
  26	 101
  26	 102
  26	 103
  26	 106
  26	 108
  26	 111
  26	 115
  26	 116
  26	 118
  27	  31
  27	  32
  27	  39
  27	  41
  27	  43
  27	  44
  27	  45
  27	  47
  27	  49
  27	  51
  27	  52
  27	  55
  27	  57
  27	  64
  27	  66
  27	  67
  27	  68
  27	  73
  27	  74
  27	  75
  27	  80
  27	  84
  27	  86
  27	  87
  27	  89
  27	  91
  27	  92
  27	  94
  27	  95
  27	  98
  27	  99
  27	 101
  27	 102
  27	 103
  27	 105
  27	 109
  27	 110
  27	 114
  27	 116
  27	 117
  27	 119
  28	  29
  28	  30
  28	  37
  28	  39
  28	  43
  28	  45
  28	  49
  28	  50
  28	  51
  28	  53
  28	  55
  28	  56
  28	  60
  28	  61
  28	  66
  28	  73
  28	  76
  28	  77
  28	  79
  28	  83
  28	  85
  28	  90
  28	  91
  28	  94
  28	  97
  28	  99
  28	 100
  28	 101
  28	 103
  28	 104
  28	 105
  28	 107
  28	 109
  28	 113
  28	 115
  28	 117
  28	 118
  29	  33
  29	  35
  29	  40
  29	  42
  29	  44
  29	  45
  29	  47
  29	  56
  29	  60
  29	  61
  29	  64
  29	  65
  29	  66
  29	  69
  29	  70
  29	  72
  29	  76
  29	  77
  29	  79
  29	  80
  29	  81
  29	  87
  29	  91
  29	  92
  29	  94
  29	  95
  29	  97
  29	 100
  29	 101
  29	 104
  29	 106
  29	 115
  29	 117
  30	  35
  30	  38
  30	  47
  30	  50
  30	  56
  30	  58
  30	  60
  30	  63
  30	  66
  30	  76
  30	  79
  30	  83
  30	 105
  30	 107
  30	 110
  30	 111
  30	 115
  31	  32
  31	  34
  31	  35
  31	  36
  31	  37
  31	  41
  31	  43
  31	  55
  31	  69
  31	  70
  31	  73
  31	  77
  31	  80
  31	  81
  31	  82
  31	  83
  31	  84
  31	  89
  31	  96
  31	 101
  31	 105
  31	 111
  31	 117
  31	 118
  31	 119
  32	  33
  32	  35
  32	  36
  32	  43
  32	  45
  32	  48
  32	  53
  32	  54
  32	  58
  32	  59
  32	  60
  32	  61
  32	  64
  32	  66
  32	  68
  32	  72
  32	  75
  32	  76
  32	  78
  32	  82
  32	  83
  32	  84
  32	  86
  32	  89
  32	  92
  32	  95
  32	  98
  32	  99
  32	 100
  32	 103
  32	 107
  32	 110
  32	 111
  32	 113
  33	  35
  33	  38
  33	  42
  33	  45
  33	  46
  33	  48
  33	  52
  33	  53
  33	  55
  33	  62
  33	  63
  33	  71
  33	  73
  33	  74
  33	  79
  33	  80
  33	  82
  33	  87
  33	  88
  33	  90
  33	  92
  33	  99
  33	 102
  33	 109
  33	 116
  33	 117
  33	 119
  34	  35
  34	  40
  34	  44
  34	  45
  34	  48
  34	  52
  34	  54
  34	  57
  34	  59
  34	  63
  34	  66
  34	  77
  34	  79
  34	  82
  34	  83
  34	  88
  34	  94
  34	  95
  34	  97
  34	 100
  34	 101
  34	 102
  34	 103
  34	 110
  34	 112
  34	 113
  34	 114
  34	 115
  35	  38
  35	  39
  35	  43
  35	  44
  35	  50
  35	  55
  35	  57
  35	  58
  35	  59
  35	  60
  35	  61
  35	  63
  35	  67
  35	  68
  35	  70
  35	  71
  35	  72
  35	  78
  35	  90
  35	  93
  35	 104
  35	 105
  35	 106
  35	 107
  35	 109
  35	 110
  36	  39
  36	  40
  36	  41
  36	  44
  36	  48
  36	  50
  36	  51
  36	  53
  36	  58
  36	  64
  36	  65
  36	  72
  36	  81
  36	  83
  36	  85
  36	  87
  36	  88
  36	  89
  36	  96
  36	 100
  36	 103
  36	 107
  36	 108
  36	 114
  36	 115
  36	 117
  37	  41
  37	  43
  37	  44
  37	  45
  37	  47
  37	  51
  37	  54
  37	  60
  37	  62
  37	  72
  37	  83
  37	  90
  37	  91
  37	  95
  37	 101
  37	 103
  37	 105
  37	 107
  37	 109
  37	 110
  37	 112
  37	 115
  37	 116
  37	 118
  38	  42
  38	  43
  38	  45
  38	  46
  38	  53
  38	  56
  38	  58
  38	  62
  38	  68
  38	  71
  38	  80
  38	  81
  38	  85
  38	  87
  38	  88
  38	  91
  38	  94
  38	  95
  38	  97
  38	 101
  38	 106
  38	 109
  38	 115
  38	 119
  39	  45
  39	  51
  39	  53
  39	  55
  39	  58
  39	  62
  39	  69
  39	  70
  39	  72
  39	  73
  39	  90
  39	 101
  39	 104
  39	 105
  39	 108
  39	 110
  39	 111
  39	 115
  39	 119
  40	  44
  40	  46
  40	  55
  40	  60
  40	  62
  40	  69
  40	  76
  40	  77
  40	  79
  40	  84
  40	  85
  40	  90
  40	  91
  40	  93
  40	 107
  40	 110
  41	  43
  41	  44
  41	  47
  41	  50
  41	  52
  41	  53
  41	  54
  41	  59
  41	  60
  41	  62
  41	  63
  41	  64
  41	  65
  41	  67
  41	  73
  41	  79
  41	  86
  41	  87
  41	  91
  41	  92
  41	  93
  41	 101
  41	 107
  42	  43
  42	  44
  42	  50
  42	  51
  42	  54
  42	  55
  42	  56
  42	  57
  42	  62
  42	  65
  42	  66
  42	  68
  42	  75
  42	  80
  42	  81
  42	  85
  42	  86
  42	  87
  42	  88
  42	  89
  42	  90
  42	  92
  42	  97
  42	 100
  42	 107
  43	  51
  43	  52
  43	  56
  43	  58
  43	  59
  43	  64
  43	  73
  43	  75
  43	  76
  43	  80
  43	  81
  43	  88
  43	  89
  43	  90
  43	  91
  43	  92
  43	  97
  43	 103
  43	 107
  43	 108
  43	 114
  43	 119
  44	  60
  44	  64
  44	  67
  44	  71
  44	  73
  44	  81
  44	  89
  44	  91
  44	  98
  44	 102
  44	 104
  44	 107
  44	 109
  44	 110
  44	 112
  44	 116
  44	 117
  44	 119
  45	  48
  45	  62
  45	  63
  45	  64
  45	  65
  45	  72
  45	  73
  45	  74
  45	  76
  45	  80
  45	  86
  45	  88
  45	  93
  45	  94
  45	  97
  45	 100
  45	 102
  45	 106
  45	 111
  45	 119
  46	  47
  46	  54
  46	  58
  46	  61
  46	  66
  46	  73
  46	  74
  46	  84
  46	  85
  46	  87
  46	  91
  46	  95
  46	 101
  46	 102
  46	 103
  46	 105
  46	 106
  46	 118
  47	  56
  47	  60
  47	  61
  47	  69
  47	  75
  47	  76
  47	  77
  47	  80
  47	  82
  47	  84
  47	  95
  47	  97
  47	 102
  47	 105
  47	 107
  47	 110
  47	 115
  47	 116
  47	 119
  48	  51
  48	  53
  48	  56
  48	  57
  48	  62
  48	  63
  48	  71
  48	  73
  48	  79
  48	  90
  48	  92
  48	  95
  48	  99
  48	 102
  48	 104
  48	 110
  48	 113
  49	  52
  49	  54
  49	  57
  49	  62
  49	  66
  49	  68
  49	  77
  49	  79
  49	  82
  49	  83
  49	  84
  49	  86
  49	  88
  49	  97
  49	  99
  49	 100
  49	 102
  49	 103
  49	 106
  49	 107
  49	 109
  49	 111
  49	 114
  50	  54
  50	  58
  50	  61
  50	  62
  50	  64
  50	  74
  50	  76
  50	  83
  50	  85
  50	  90
  50	  91
  50	 109
  50	 114
  50	 115
  51	  53
  51	  55
  51	  62
  51	  65
  51	  69
  51	  70
  51	  71
  51	  76
  51	  80
  51	  83
  51	  87
  51	  88
  51	  96
  51	  99
  51	 101
  51	 102
  51	 105
  51	 112
  51	 116
  52	  54
  52	  56
  52	  57
  52	  62
  52	  65
  52	  66
  52	  70
  52	  71
  52	  74
  52	  75
  52	  77
  52	  82
  52	  89
  52	  90
  52	  93
  52	  98
  52	  99
  52	 101
  52	 104
  52	 107
  52	 108
  52	 112
  52	 119
  53	  54
  53	  57
  53	  70
  53	  71
  53	  77
  53	  80
  53	  83
  53	  85
  53	  86
  53	  87
  53	  94
  53	 101
  53	 109
  53	 118
  54	  61
  54	  65
  54	  69
  54	  72
  54	  78
  54	  80
  54	  81
  54	  84
  54	  85
  54	  93
  54	  95
  54	  96
  54	  99
  54	 105
  54	 110
  54	 111
  54	 113
  55	  57
  55	  59
  55	  61
  55	  62
  55	  63
  55	  66
  55	  79
  55	  85
  55	  86
  55	 104
  55	 106
  55	 117
  56	  57
  56	  71
  56	  74
  56	  75
  56	  77
  56	  81
  56	  84
  56	  85
  56	  91
  56	  92
  56	  97
  56	 104
  56	 105
  56	 107
  56	 110
  56	 118
  57	  58
  57	  59
  57	  67
  57	  69
  57	  73
  57	  76
  57	  79
  57	  83
  57	  87
  57	  89
  57	  90
  57	  97
  57	  99
  57	 100
  57	 101
  57	 102
  57	 104
  57	 105
  57	 110
  57	 114
  57	 117
  58	  59
  58	  61
  58	  62
  58	  63
  58	  64
  58	  68
  58	  72
  58	  75
  58	  79
  58	  84
  58	  85
  58	  86
  58	  87
  58	  88
  58	  90
  58	  91
  58	 101
  58	 103
  58	 104
  58	 106
  58	 108
  58	 115
  58	 118
  59	  64
  59	  66
  59	  69
  59	  73
  59	  74
  59	  78
  59	  80
  59	  82
  59	  86
  59	  87
  59	  93
  59	  95
  59	  96
  59	  97
  59	  99
  59	 100
  59	 102
  59	 104
  59	 111
  59	 115
  60	  65
  60	  69
  60	  72
  60	  77
  60	  78
  60	  89
  60	  92
  60	 100
  60	 107
  60	 108
  60	 109
  60	 110
  60	 111
  60	 115
  60	 117
  61	  62
  61	  64
  61	  65
  61	  66
  61	  67
  61	  71
  61	  74
  61	  79
  61	  81
  61	  83
  61	  84
  61	  86
  61	  87
  61	  89
  61	  92
  61	 101
  61	 104
  61	 107
  61	 108
  61	 109
  61	 114
  62	  69
  62	  72
  62	  75
  62	  76
  62	  77
  62	  78
  62	  90
  62	  91
  62	  93
  62	  94
  62	  96
  62	 103
  62	 108
  62	 110
  62	 111
  62	 112
  62	 119
  63	  64
  63	  65
  63	  70
  63	  74
  63	  76
  63	  77
  63	  79
  63	  82
  63	  84
  63	  91
  63	  96
  63	  97
  63	 102
  63	 104
  63	 105
  63	 108
  63	 114
  63	 119
  64	  67
  64	  71
  64	  72
  64	  73
  64	  96
  64	 103
  64	 108
  64	 109
  64	 112
  64	 115
  64	 116
  65	  66
  65	  70
  65	  75
  65	  79
  65	  80
  65	  83
  65	  84
  65	  85
  65	  94
  65	  99
  65	 100
  65	 102
  65	 108
  65	 109
  65	 110
  65	 111
  65	 113
  65	 116
  65	 118
  66	  68
  66	  70
  66	  72
  66	  74
  66	  79
  66	  80
  66	  81
  66	  83
  66	  86
  66	  89
  66	  90
  66	  96
  66	  98
  66	 103
  66	 110
  66	 114
  66	 118
  67	  72
  67	  78
  67	  79
  67	  83
  67	  85
  67	  86
  67	  90
  67	  93
  67	  94
  67	  96
  67	  97
  67	  98
  67	 100
  67	 106
  67	 108
  67	 110
  67	 114
  67	 116
  68	  72
  68	  73
  68	  74
  68	  76
  68	  91
  68	 103
  68	 113
  68	 114
  68	 116
  68	 119
  69	  72
  69	  78
  69	  80
  69	  81
  69	  83
  69	  88
  69	  95
  69	  96
  69	  99
  69	 101
  69	 104
  69	 109
  69	 111
  69	 114
  69	 115
  69	 118
  69	 119
  70	  72
  70	  74
  70	  76
  70	  91
  70	  93
  70	  96
  70	  99
  70	 100
  70	 101
  70	 103
  70	 112
  71	  75
  71	  87
  71	  88
  71	  91
  71	  93
  71	 102
  71	 103
  71	 113
  71	 117
  71	 119
  72	  75
  72	  79
  72	  80
  72	  83
  72	  92
  72	  93
  72	 100
  72	 102
  72	 104
  72	 107
  72	 108
  72	 111
  72	 112
  72	 114
  72	 116
  72	 118
  73	  74
  73	  75
  73	  76
  73	  81
  73	  86
  73	  96
  73	  97
  73	  98
  73	 100
  73	 109
  73	 110
  73	 112
  73	 114
  73	 116
  74	  77
  74	  78
  74	  79
  74	  81
  74	  83
  74	  85
  74	  86
  74	  90
  74	  94
  74	  97
  74	 102
  74	 107
  74	 112
  74	 113
  74	 115
  74	 116
  74	 117
  74	 119
  75	  77
  75	  81
  75	  84
  75	  93
  75	 102
  75	 104
  75	 107
  75	 110
  75	 114
  75	 117
  75	 119
  76	  77
  76	  79
  76	  85
  76	  90
  76	  93
  76	  97
  76	 104
  76	 108
  76	 110
  76	 113
  76	 115
  76	 116
  77	  79
  77	  81
  77	  83
  77	  87
  77	  88
  77	 100
  77	 106
  77	 109
  77	 111
  77	 113
  77	 114
  78	  82
  78	  85
  78	  87
  78	  88
  78	  89
  78	  91
  78	  96
  78	  97
  78	  98
  78	  99
  78	 100
  78	 104
  78	 112
  78	 114
  78	 116
  79	  80
  79	  82
  79	  93
  79	  94
  79	  96
  79	  98
  79	 104
  79	 108
  79	 114
  79	 117
  79	 119
  80	  83
  80	  85
  80	  86
  80	  88
  80	  89
  80	  91
  80	  93
  80	  94
  80	  95
  80	  97
  80	 102
  80	 105
  80	 107
  80	 112
  80	 113
  80	 115
  80	 118
  81	  82
  81	  85
  81	  90
  81	  92
  81	  93
  81	  95
  81	  98
  81	  99
  81	 101
  81	 108
  81	 111
  81	 113
  81	 115
  82	  84
  82	  86
  82	  87
  82	  89
  82	  90
  82	  96
  82	  97
  82	 105
  82	 106
  82	 107
  82	 110
  83	  86
  83	  87
  83	  90
  83	 100
  83	 106
  83	 108
  83	 109
  83	 113
  83	 119
  84	  86
  84	  87
  84	  88
  84	  89
  84	  97
  84	  99
  84	 100
  84	 106
  84	 107
  84	 108
  84	 111
  84	 114
  84	 117
  84	 119
  85	  86
  85	  87
  85	  88
  85	  89
  85	  90
  85	  95
  85	  98
  85	 104
  85	 105
  85	 113
  85	 119
  86	  88
  86	  90
  86	  92
  86	  93
  86	  95
  86	  96
  86	  99
  86	 102
  86	 103
  86	 109
  86	 113
  86	 114
  86	 115
  86	 119
  87	  88
  87	  89
  87	  96
  87	 104
  87	 105
  87	 110
  88	  90
  88	  91
  88	  95
  88	  96
  88	 101
  88	 103
  88	 104
  88	 105
  88	 110
  88	 111
  88	 113
  88	 119
  89	  90
  89	  94
  89	  95
  89	  97
  89	 100
  89	 102
  89	 106
  89	 109
  89	 110
  89	 113
  89	 116
  89	 117
  89	 118
  90	  92
  90	  93
  90	  99
  90	 102
  90	 104
  90	 105
  90	 107
  90	 113
  90	 114
  90	 118
  91	  93
  91	  95
  91	  97
  91	  99
  91	 100
  91	 101
  91	 103
  91	 106
  91	 113
  91	 117
  92	 102
  92	 103
  92	 104
  92	 109
  92	 110
  92	 113
  92	 114
  92	 115
  93	  96
  93	  98
  93	 101
  93	 102
  93	 104
  93	 107
  93	 109
  93	 114
  93	 116
  93	 117
  93	 118
  94	  99
  94	 102
  94	 108
  94	 109
  94	 114
  94	 115
  94	 118
  95	  97
  95	 100
  95	 105
  95	 106
  95	 107
  95	 116
  95	 119
  96	  97
  96	 101
  96	 102
  96	 108
  96	 111
  96	 115
  97	  98
  97	 101
  97	 102
  97	 109
  97	 111
  97	 113
  97	 117
  97	 118
  97	 119
  98	 100
  98	 105
  98	 113
  98	 115
  98	 117
  98	 118
  99	 100
  99	 113
  99	 117
 100	 102
 100	 105
 100	 109
 101	 103
 101	 105
 101	 106
 101	 107
 101	 114
 101	 116
 102	 104
 102	 107
 102	 114
 102	 116
 102	 119
 103	 104
 103	 105
 103	 112
 103	 115
 103	 118
 104	 107
 105	 106
 105	 113
 105	 119
 106	 109
 106	 110
 106	 112
 106	 114
 106	 115
 106	 117
 106	 119
 107	 116
 107	 119
 108	 109
 108	 110
 108	 112
 108	 114
 108	 115
 108	 117
 109	 114
 109	 116
 109	 119
 110	 111
 110	 117
 110	 118
 110	 119
 111	 113
 111	 114
 111	 117
 112	 114
 113	 114
 113	 115
 113	 116
 113	 119
 115	 119
 116	 119
;
